proyfinal/src/viki/013/experimentInOfficeAgust.take6.output/ce9f3e59-6bc2-401c-bc04-f76244cb261d.als.out
Reading from standard input... Use '--help' for help.
============================[ Problem Statistics ]=============================
|                                                                             |
|  Number of variables:         87638                                         |
|  Number of clauses:          161767                                         |
|  Parse time:                   0.04 s                                       |
|                                                                             |
============================[ Search Statistics ]==============================
| Conflicts |          ORIGINAL         |          LEARNT          | Progress |
|           |    Vars  Clauses Literals |    Limit  Clauses Lit/Cl |          |
===============================================================================
|       100 |   62375   105155   262728 |    38556      100     13 | 28.827 % |
|       250 |   62375   105155   262728 |    42412      250     27 | 28.827 % |
|       475 |   62375   105155   262728 |    46653      475     54 | 28.827 % |
|       812 |   62375   105155   262728 |    51319      812     60 | 28.827 % |
|      1318 |   62375   105155   262728 |    56451     1318     67 | 28.827 % |
|      2077 |   62375   105155   262728 |    62096     2077     77 | 28.827 % |
|      3216 |   62375   105155   262728 |    68305     3216     79 | 28.827 % |
|      4924 |   62353   105063   262517 |    75136     4922     78 | 28.852 % |
|      7486 |   48888   104876   262115 |    82649     6939     77 | 44.216 % |
|     11330 |   48734    64818   163342 |    90914    10600     65 | 44.392 % |
===============================================================================
restarts              : 59
conflicts             : 13064          (7438 /sec)
decisions             : 57710          (0.00 % random) (32859 /sec)
propagations          : 18494920       (10530544 /sec)
conflict literals     : 809620         (48.84 % deleted)
Memory used           : 29.43 MB
CPU time              : 1.75631 s

UNSATISFIABLE
